s td 20 3 20
b 1 2 5
b 2 7 13
b 3 11 12
b 4 13 14
b 5 14 15
b 6 14 19
b 7 9 17
b 8 2 9
b 9 2 11
b 10 1 4 6
b 11 4 6 11
b 12 6 11 19
b 13 8 11 19
b 14 11 19
b 15 19
b 16 3
b 17 10
b 18 16
b 19 18
b 20 20
1 9
1 16
1 17
1 18
1 19
1 20
2 4
3 14
4 6
5 6
6 15
7 8
8 9
9 14
10 11
11 12
12 14
13 14
14 15
